N = 5;
H = 5;
T = 2;

avail = array3d(1..N, 1..H, 1..T, [6, 2, 1, 3, 7, 0, 8, 6, 0, 0, 6, 0, 9, 4, 7, 7, 10, 4, 2, 1, 8, 6, 2, 3, 3, 4, 1, 5, 6, 5, 2, 7, 9, 9, 4, 3, 0, 2, 3, 4, 9, 8, 8, 2, 8, 9, 9, 4, 9, 3]);

r = array2d(1..H, 1..T, [0, 0, 1, 1, 2, 0, 0, 2, 0, 0]);
